<instance format="XCSP3" type="CSP">
  <variables>
    <var id="x0"> 2 </var>
    <var id="x1"> 0..9 </var>
    <var id="x2"> 9 </var>
    <var id="x3"> 0..9 </var>
    <var id="x4"> 0..9 </var>
    <var id="x5"> 0..9 </var>
    <var id="x6"> 8 </var>
    <var id="x7"> 6 </var>
    <var id="x8"> 3 </var>
    <var id="x9"> 0..9 </var>
    <var id="x10"> 5 </var>
    <var id="x11"> 0..9 </var>
    <var id="x12"> 0..9 </var>
    <var id="x13"> 0..9 </var>
    <var id="x14"> 8 </var>
    <var id="x15"> 0..9 </var>
    <var id="x16"> 6 </var>
    <var id="x17"> 0..9 </var>
    <var id="x18"> 0..9 </var>
    <var id="x19"> 0 </var>
    <var id="x20"> 8 </var>
    <var id="x21"> 0..9 </var>
    <var id="x22"> 0..9 </var>
    <var id="x23"> 0 </var>
    <var id="x24"> 0..9 </var>
    <var id="x25"> 5 </var>
    <var id="x26"> 7 </var>
    <var id="x27"> 0..9 </var>
    <var id="x28"> 0..9 </var>
    <var id="x29"> 6 </var>
    <var id="x30"> 4 </var>
    <var id="x31"> 0..9 </var>
    <var id="x32"> 0..9 </var>
    <var id="x33"> 6 </var>
    <var id="x34"> 0..9 </var>
    <var id="x35"> 0..9 </var>
    <var id="x36"> 0..9 </var>
    <var id="x37"> 3 </var>
    <var id="x38"> 0..9 </var>
    <var id="x39"> 2 </var>
    <var id="x40"> 3 </var>
    <var id="x41"> 0..9 </var>
    <var id="x42"> 8 </var>
    <var id="x43"> 0..9 </var>
    <var id="x44"> 0..9 </var>
    <var id="x45"> 6 </var>
    <var id="x46"> 0..9 </var>
    <var id="x47"> 7 </var>
    <var id="x48"> 0..9 </var>
    <var id="x49"> 0..9 </var>
    <var id="x50"> 0..9 </var>
    <var id="x51"> 7 </var>
    <var id="x52"> 0..9 </var>
    <var id="x53"> 4 </var>
    <var id="x54"> 0..9 </var>
    <var id="x55"> 0..9 </var>
    <var id="x56"> 1 </var>
    <var id="x57"> 0 </var>
    <var id="x58"> 0..9 </var>
    <var id="x59"> 0..9 </var>
    <var id="x60"> 0..9 </var>
    <var id="x61"> 6 </var>
    <var id="x62"> 3 </var>
    <var id="x63"> 0..9 </var>
    <var id="x64"> 7 </var>
    <var id="x65"> 2 </var>
    <var id="x66"> 0..9 </var>
    <var id="x67"> 0..9 </var>
    <var id="x68"> 0..9 </var>
    <var id="x69"> 0..9 </var>
    <var id="x70"> 0..9 </var>
    <var id="x71"> 1 </var>
    <var id="x72"> 0..9 </var>
    <var id="x73"> 0..9 </var>
    <var id="x74"> 6 </var>
    <var id="x75"> 0..9 </var>
    <var id="x76"> 0..9 </var>
    <var id="x77"> 0..9 </var>
    <var id="x78"> 8 </var>
    <var id="x79"> 3 </var>
    <var id="x80"> 0..9 </var>
    <var id="x81"> 4 </var>
    <var id="x82"> 0..9 </var>
    <var id="x83"> 1 </var>
    <var id="x84"> 9 </var>
    <var id="x85"> 0..9 </var>
    <var id="x86"> 0..9 </var>
    <var id="x87"> 0..9 </var>
    <var id="x88"> 5 </var>
    <var id="x89"> 0..9 </var>
    <var id="x90"> 0..9 </var>
    <var id="x91"> 3 </var>
    <var id="x92"> 6 </var>
    <var id="x93"> 0..9 </var>
    <var id="x94"> 0..9 </var>
    <var id="x95"> 1 </var>
    <var id="x96"> 0..9 </var>
    <var id="x97"> 4 </var>
    <var id="x98"> 2 </var>
    <var id="x99"> 0..9 </var>
  </variables>
  <constraints>
    <group>
      <extension>
        <list> %0 %1 </list>
        <conflicts> (2,2) </conflicts>
      </extension>
      <args> x0 x1 </args>
      <args> x0 x3 </args>
      <args> x0 x4 </args>
      <args> x0 x5 </args>
      <args> x0 x9 </args>
      <args> x0 x50 </args>
      <args> x0 x60 </args>
      <args> x0 x70 </args>
      <args> x0 x80 </args>
      <args> x0 x90 </args>
      <args> x5 x65 </args>
      <args> x9 x39 </args>
      <args> x15 x65 </args>
      <args> x18 x98 </args>
      <args> x28 x98 </args>
      <args> x31 x39 </args>
      <args> x32 x39 </args>
      <args> x34 x39 </args>
      <args> x35 x39 </args>
      <args> x35 x65 </args>
      <args> x36 x39 </args>
      <args> x38 x39 </args>
      <args> x38 x98 </args>
      <args> x39 x49 </args>
      <args> x39 x59 </args>
      <args> x39 x69 </args>
      <args> x39 x89 </args>
      <args> x39 x99 </args>
      <args> x48 x98 </args>
      <args> x55 x65 </args>
      <args> x58 x98 </args>
      <args> x60 x65 </args>
      <args> x63 x65 </args>
      <args> x65 x75 </args>
      <args> x65 x85 </args>
      <args> x65 x66 </args>
      <args> x65 x67 </args>
      <args> x65 x68 </args>
      <args> x65 x69 </args>
      <args> x68 x98 </args>
      <args> x90 x98 </args>
      <args> x93 x98 </args>
      <args> x94 x98 </args>
      <args> x96 x98 </args>
      <args> x98 x99 </args>
    </group>
    <group>
      <extension>
        <list> %0 %1 </list>
        <conflicts>  </conflicts>
      </extension>
      <args> x0 x2 </args>
      <args> x0 x6 </args>
      <args> x0 x7 </args>
      <args> x0 x8 </args>
      <args> x0 x10 </args>
      <args> x0 x20 </args>
      <args> x0 x30 </args>
      <args> x0 x40 </args>
      <args> x2 x6 </args>
      <args> x2 x7 </args>
      <args> x2 x8 </args>
      <args> x2 x42 </args>
      <args> x2 x62 </args>
      <args> x2 x92 </args>
      <args> x6 x7 </args>
      <args> x6 x8 </args>
      <args> x6 x16 </args>
      <args> x6 x26 </args>
      <args> x6 x56 </args>
      <args> x7 x8 </args>
      <args> x7 x37 </args>
      <args> x7 x47 </args>
      <args> x7 x57 </args>
      <args> x7 x97 </args>
      <args> x8 x78 </args>
      <args> x8 x88 </args>
      <args> x8 x98 </args>
      <args> x10 x20 </args>
      <args> x10 x30 </args>
      <args> x10 x40 </args>
      <args> x10 x14 </args>
      <args> x10 x16 </args>
      <args> x10 x19 </args>
      <args> x14 x16 </args>
      <args> x14 x19 </args>
      <args> x14 x64 </args>
      <args> x14 x74 </args>
      <args> x14 x84 </args>
      <args> x16 x19 </args>
      <args> x16 x26 </args>
      <args> x16 x56 </args>
      <args> x19 x29 </args>
      <args> x19 x39 </args>
      <args> x19 x79 </args>
      <args> x20 x30 </args>
      <args> x20 x40 </args>
      <args> x20 x23 </args>
      <args> x20 x25 </args>
      <args> x20 x26 </args>
      <args> x20 x29 </args>
      <args> x23 x25 </args>
      <args> x23 x26 </args>
      <args> x23 x29 </args>
      <args> x23 x33 </args>
      <args> x23 x53 </args>
      <args> x23 x83 </args>
      <args> x25 x26 </args>
      <args> x25 x29 </args>
      <args> x25 x45 </args>
      <args> x25 x65 </args>
      <args> x25 x95 </args>
      <args> x26 x29 </args>
      <args> x26 x56 </args>
      <args> x29 x39 </args>
      <args> x29 x79 </args>
      <args> x30 x40 </args>
      <args> x30 x33 </args>
      <args> x30 x37 </args>
      <args> x30 x39 </args>
      <args> x33 x37 </args>
      <args> x33 x39 </args>
      <args> x33 x53 </args>
      <args> x33 x83 </args>
      <args> x37 x39 </args>
      <args> x37 x47 </args>
      <args> x37 x57 </args>
      <args> x37 x97 </args>
      <args> x39 x79 </args>
      <args> x40 x42 </args>
      <args> x40 x45 </args>
      <args> x40 x47 </args>
      <args> x42 x62 </args>
      <args> x42 x92 </args>
      <args> x42 x45 </args>
      <args> x42 x47 </args>
      <args> x45 x47 </args>
      <args> x45 x65 </args>
      <args> x45 x95 </args>
      <args> x47 x57 </args>
      <args> x47 x97 </args>
      <args> x51 x61 </args>
      <args> x51 x71 </args>
      <args> x51 x81 </args>
      <args> x51 x91 </args>
      <args> x51 x53 </args>
      <args> x51 x56 </args>
      <args> x51 x57 </args>
      <args> x53 x83 </args>
      <args> x53 x56 </args>
      <args> x53 x57 </args>
      <args> x56 x57 </args>
      <args> x57 x97 </args>
      <args> x61 x71 </args>
      <args> x61 x81 </args>
      <args> x61 x91 </args>
      <args> x61 x62 </args>
      <args> x61 x64 </args>
      <args> x61 x65 </args>
      <args> x62 x92 </args>
      <args> x62 x64 </args>
      <args> x62 x65 </args>
      <args> x64 x74 </args>
      <args> x64 x84 </args>
      <args> x64 x65 </args>
      <args> x65 x95 </args>
      <args> x71 x81 </args>
      <args> x71 x91 </args>
      <args> x71 x74 </args>
      <args> x71 x78 </args>
      <args> x71 x79 </args>
      <args> x74 x84 </args>
      <args> x74 x78 </args>
      <args> x74 x79 </args>
      <args> x78 x79 </args>
      <args> x78 x88 </args>
      <args> x78 x98 </args>
      <args> x81 x91 </args>
      <args> x81 x83 </args>
      <args> x81 x84 </args>
      <args> x81 x88 </args>
      <args> x83 x84 </args>
      <args> x83 x88 </args>
      <args> x84 x88 </args>
      <args> x88 x98 </args>
      <args> x91 x92 </args>
      <args> x91 x95 </args>
      <args> x91 x97 </args>
      <args> x91 x98 </args>
      <args> x92 x95 </args>
      <args> x92 x97 </args>
      <args> x92 x98 </args>
      <args> x95 x97 </args>
      <args> x95 x98 </args>
      <args> x97 x98 </args>
    </group>
    <group>
      <extension>
        <list> %0 %1 </list>
        <conflicts> (9,9) </conflicts>
      </extension>
      <args> x1 x2 </args>
      <args> x2 x3 </args>
      <args> x2 x4 </args>
      <args> x2 x5 </args>
      <args> x2 x9 </args>
      <args> x2 x12 </args>
      <args> x2 x22 </args>
      <args> x2 x32 </args>
      <args> x2 x52 </args>
      <args> x2 x72 </args>
      <args> x2 x82 </args>
      <args> x4 x84 </args>
      <args> x24 x84 </args>
      <args> x34 x84 </args>
      <args> x44 x84 </args>
      <args> x54 x84 </args>
      <args> x80 x84 </args>
      <args> x82 x84 </args>
      <args> x84 x94 </args>
      <args> x84 x85 </args>
      <args> x84 x86 </args>
      <args> x84 x87 </args>
      <args> x84 x89 </args>
    </group>
    <group>
      <extension>
        <list> %0 %1 </list>
        <conflicts> (0,0)(1,1)(2,2)(3,3)(4,4)(5,5)(6,6)(7,7)(8,8)(9,9) </conflicts>
      </extension>
      <args> x1 x3 </args>
      <args> x1 x4 </args>
      <args> x1 x5 </args>
      <args> x1 x9 </args>
      <args> x1 x11 </args>
      <args> x1 x21 </args>
      <args> x1 x31 </args>
      <args> x1 x41 </args>
      <args> x3 x4 </args>
      <args> x3 x5 </args>
      <args> x3 x9 </args>
      <args> x3 x13 </args>
      <args> x3 x43 </args>
      <args> x3 x63 </args>
      <args> x3 x73 </args>
      <args> x3 x93 </args>
      <args> x4 x5 </args>
      <args> x4 x9 </args>
      <args> x4 x24 </args>
      <args> x4 x34 </args>
      <args> x4 x44 </args>
      <args> x4 x54 </args>
      <args> x4 x94 </args>
      <args> x5 x9 </args>
      <args> x5 x15 </args>
      <args> x5 x35 </args>
      <args> x5 x55 </args>
      <args> x5 x75 </args>
      <args> x5 x85 </args>
      <args> x9 x49 </args>
      <args> x9 x59 </args>
      <args> x9 x69 </args>
      <args> x9 x89 </args>
      <args> x9 x99 </args>
      <args> x11 x12 </args>
      <args> x11 x13 </args>
      <args> x11 x15 </args>
      <args> x11 x17 </args>
      <args> x11 x18 </args>
      <args> x11 x21 </args>
      <args> x11 x31 </args>
      <args> x11 x41 </args>
      <args> x12 x13 </args>
      <args> x12 x15 </args>
      <args> x12 x17 </args>
      <args> x12 x18 </args>
      <args> x12 x22 </args>
      <args> x12 x32 </args>
      <args> x12 x52 </args>
      <args> x12 x72 </args>
      <args> x12 x82 </args>
      <args> x13 x15 </args>
      <args> x13 x17 </args>
      <args> x13 x18 </args>
      <args> x13 x43 </args>
      <args> x13 x63 </args>
      <args> x13 x73 </args>
      <args> x13 x93 </args>
      <args> x15 x17 </args>
      <args> x15 x18 </args>
      <args> x15 x35 </args>
      <args> x15 x55 </args>
      <args> x15 x75 </args>
      <args> x15 x85 </args>
      <args> x17 x18 </args>
      <args> x17 x27 </args>
      <args> x17 x67 </args>
      <args> x17 x77 </args>
      <args> x17 x87 </args>
      <args> x18 x28 </args>
      <args> x18 x38 </args>
      <args> x18 x48 </args>
      <args> x18 x58 </args>
      <args> x18 x68 </args>
      <args> x21 x31 </args>
      <args> x21 x41 </args>
      <args> x21 x22 </args>
      <args> x21 x24 </args>
      <args> x21 x27 </args>
      <args> x21 x28 </args>
      <args> x22 x24 </args>
      <args> x22 x27 </args>
      <args> x22 x28 </args>
      <args> x22 x32 </args>
      <args> x22 x52 </args>
      <args> x22 x72 </args>
      <args> x22 x82 </args>
      <args> x24 x27 </args>
      <args> x24 x28 </args>
      <args> x24 x34 </args>
      <args> x24 x44 </args>
      <args> x24 x54 </args>
      <args> x24 x94 </args>
      <args> x27 x28 </args>
      <args> x27 x67 </args>
      <args> x27 x77 </args>
      <args> x27 x87 </args>
      <args> x28 x38 </args>
      <args> x28 x48 </args>
      <args> x28 x58 </args>
      <args> x28 x68 </args>
      <args> x31 x41 </args>
      <args> x31 x32 </args>
      <args> x31 x34 </args>
      <args> x31 x35 </args>
      <args> x31 x36 </args>
      <args> x31 x38 </args>
      <args> x32 x52 </args>
      <args> x32 x72 </args>
      <args> x32 x82 </args>
      <args> x32 x34 </args>
      <args> x32 x35 </args>
      <args> x32 x36 </args>
      <args> x32 x38 </args>
      <args> x34 x35 </args>
      <args> x34 x36 </args>
      <args> x34 x38 </args>
      <args> x34 x44 </args>
      <args> x34 x54 </args>
      <args> x34 x94 </args>
      <args> x35 x36 </args>
      <args> x35 x38 </args>
      <args> x35 x55 </args>
      <args> x35 x75 </args>
      <args> x35 x85 </args>
      <args> x36 x38 </args>
      <args> x36 x46 </args>
      <args> x36 x66 </args>
      <args> x36 x76 </args>
      <args> x36 x86 </args>
      <args> x36 x96 </args>
      <args> x38 x48 </args>
      <args> x38 x58 </args>
      <args> x38 x68 </args>
      <args> x41 x43 </args>
      <args> x41 x44 </args>
      <args> x41 x46 </args>
      <args> x41 x48 </args>
      <args> x41 x49 </args>
      <args> x43 x63 </args>
      <args> x43 x73 </args>
      <args> x43 x93 </args>
      <args> x43 x44 </args>
      <args> x43 x46 </args>
      <args> x43 x48 </args>
      <args> x43 x49 </args>
      <args> x44 x46 </args>
      <args> x44 x48 </args>
      <args> x44 x49 </args>
      <args> x44 x54 </args>
      <args> x44 x94 </args>
      <args> x46 x48 </args>
      <args> x46 x49 </args>
      <args> x46 x66 </args>
      <args> x46 x76 </args>
      <args> x46 x86 </args>
      <args> x46 x96 </args>
      <args> x48 x49 </args>
      <args> x48 x58 </args>
      <args> x48 x68 </args>
      <args> x49 x59 </args>
      <args> x49 x69 </args>
      <args> x49 x89 </args>
      <args> x49 x99 </args>
      <args> x50 x60 </args>
      <args> x50 x70 </args>
      <args> x50 x80 </args>
      <args> x50 x90 </args>
      <args> x50 x52 </args>
      <args> x50 x54 </args>
      <args> x50 x55 </args>
      <args> x50 x58 </args>
      <args> x50 x59 </args>
      <args> x52 x72 </args>
      <args> x52 x82 </args>
      <args> x52 x54 </args>
      <args> x52 x55 </args>
      <args> x52 x58 </args>
      <args> x52 x59 </args>
      <args> x54 x94 </args>
      <args> x54 x55 </args>
      <args> x54 x58 </args>
      <args> x54 x59 </args>
      <args> x55 x58 </args>
      <args> x55 x59 </args>
      <args> x55 x75 </args>
      <args> x55 x85 </args>
      <args> x58 x59 </args>
      <args> x58 x68 </args>
      <args> x59 x69 </args>
      <args> x59 x89 </args>
      <args> x59 x99 </args>
      <args> x60 x70 </args>
      <args> x60 x80 </args>
      <args> x60 x90 </args>
      <args> x60 x63 </args>
      <args> x60 x66 </args>
      <args> x60 x67 </args>
      <args> x60 x68 </args>
      <args> x60 x69 </args>
      <args> x63 x73 </args>
      <args> x63 x93 </args>
      <args> x63 x66 </args>
      <args> x63 x67 </args>
      <args> x63 x68 </args>
      <args> x63 x69 </args>
      <args> x66 x67 </args>
      <args> x66 x68 </args>
      <args> x66 x69 </args>
      <args> x66 x76 </args>
      <args> x66 x86 </args>
      <args> x66 x96 </args>
      <args> x67 x68 </args>
      <args> x67 x69 </args>
      <args> x67 x77 </args>
      <args> x67 x87 </args>
      <args> x68 x69 </args>
      <args> x69 x89 </args>
      <args> x69 x99 </args>
      <args> x70 x80 </args>
      <args> x70 x90 </args>
      <args> x70 x72 </args>
      <args> x70 x73 </args>
      <args> x70 x75 </args>
      <args> x70 x76 </args>
      <args> x70 x77 </args>
      <args> x72 x82 </args>
      <args> x72 x73 </args>
      <args> x72 x75 </args>
      <args> x72 x76 </args>
      <args> x72 x77 </args>
      <args> x73 x93 </args>
      <args> x73 x75 </args>
      <args> x73 x76 </args>
      <args> x73 x77 </args>
      <args> x75 x85 </args>
      <args> x75 x76 </args>
      <args> x75 x77 </args>
      <args> x76 x86 </args>
      <args> x76 x96 </args>
      <args> x76 x77 </args>
      <args> x77 x87 </args>
      <args> x80 x90 </args>
      <args> x80 x82 </args>
      <args> x80 x85 </args>
      <args> x80 x86 </args>
      <args> x80 x87 </args>
      <args> x80 x89 </args>
      <args> x82 x85 </args>
      <args> x82 x86 </args>
      <args> x82 x87 </args>
      <args> x82 x89 </args>
      <args> x85 x86 </args>
      <args> x85 x87 </args>
      <args> x85 x89 </args>
      <args> x86 x96 </args>
      <args> x86 x87 </args>
      <args> x86 x89 </args>
      <args> x87 x89 </args>
      <args> x89 x99 </args>
      <args> x90 x93 </args>
      <args> x90 x94 </args>
      <args> x90 x96 </args>
      <args> x90 x99 </args>
      <args> x93 x94 </args>
      <args> x93 x96 </args>
      <args> x93 x99 </args>
      <args> x94 x96 </args>
      <args> x94 x99 </args>
      <args> x96 x99 </args>
    </group>
    <group>
      <extension>
        <list> %0 %1 </list>
        <conflicts> (8,8) </conflicts>
      </extension>
      <args> x1 x6 </args>
      <args> x3 x6 </args>
      <args> x4 x6 </args>
      <args> x4 x14 </args>
      <args> x5 x6 </args>
      <args> x6 x9 </args>
      <args> x6 x36 </args>
      <args> x6 x46 </args>
      <args> x6 x66 </args>
      <args> x6 x76 </args>
      <args> x6 x86 </args>
      <args> x6 x96 </args>
      <args> x11 x14 </args>
      <args> x12 x14 </args>
      <args> x12 x42 </args>
      <args> x13 x14 </args>
      <args> x14 x15 </args>
      <args> x14 x17 </args>
      <args> x14 x18 </args>
      <args> x14 x24 </args>
      <args> x14 x34 </args>
      <args> x14 x44 </args>
      <args> x14 x54 </args>
      <args> x14 x94 </args>
      <args> x18 x78 </args>
      <args> x20 x50 </args>
      <args> x20 x60 </args>
      <args> x20 x70 </args>
      <args> x20 x80 </args>
      <args> x20 x90 </args>
      <args> x20 x21 </args>
      <args> x20 x22 </args>
      <args> x20 x24 </args>
      <args> x20 x27 </args>
      <args> x20 x28 </args>
      <args> x22 x42 </args>
      <args> x28 x78 </args>
      <args> x32 x42 </args>
      <args> x38 x78 </args>
      <args> x41 x42 </args>
      <args> x42 x52 </args>
      <args> x42 x72 </args>
      <args> x42 x82 </args>
      <args> x42 x43 </args>
      <args> x42 x44 </args>
      <args> x42 x46 </args>
      <args> x42 x48 </args>
      <args> x42 x49 </args>
      <args> x48 x78 </args>
      <args> x58 x78 </args>
      <args> x68 x78 </args>
      <args> x70 x78 </args>
      <args> x72 x78 </args>
      <args> x73 x78 </args>
      <args> x75 x78 </args>
      <args> x76 x78 </args>
      <args> x77 x78 </args>
    </group>
    <group>
      <extension>
        <list> %0 %1 </list>
        <conflicts> (6,6) </conflicts>
      </extension>
      <args> x1 x7 </args>
      <args> x1 x61 </args>
      <args> x3 x7 </args>
      <args> x3 x33 </args>
      <args> x4 x7 </args>
      <args> x4 x74 </args>
      <args> x5 x7 </args>
      <args> x5 x45 </args>
      <args> x7 x9 </args>
      <args> x7 x17 </args>
      <args> x7 x27 </args>
      <args> x7 x67 </args>
      <args> x7 x77 </args>
      <args> x7 x87 </args>
      <args> x9 x29 </args>
      <args> x11 x16 </args>
      <args> x11 x61 </args>
      <args> x12 x16 </args>
      <args> x12 x92 </args>
      <args> x13 x16 </args>
      <args> x13 x33 </args>
      <args> x15 x16 </args>
      <args> x15 x45 </args>
      <args> x16 x17 </args>
      <args> x16 x18 </args>
      <args> x16 x36 </args>
      <args> x16 x46 </args>
      <args> x16 x66 </args>
      <args> x16 x76 </args>
      <args> x16 x86 </args>
      <args> x16 x96 </args>
      <args> x21 x61 </args>
      <args> x21 x29 </args>
      <args> x22 x29 </args>
      <args> x22 x92 </args>
      <args> x24 x29 </args>
      <args> x24 x74 </args>
      <args> x27 x29 </args>
      <args> x28 x29 </args>
      <args> x29 x49 </args>
      <args> x29 x59 </args>
      <args> x29 x69 </args>
      <args> x29 x89 </args>
      <args> x29 x99 </args>
      <args> x31 x61 </args>
      <args> x31 x33 </args>
      <args> x32 x92 </args>
      <args> x32 x33 </args>
      <args> x33 x34 </args>
      <args> x33 x35 </args>
      <args> x33 x36 </args>
      <args> x33 x38 </args>
      <args> x33 x43 </args>
      <args> x33 x63 </args>
      <args> x33 x73 </args>
      <args> x33 x93 </args>
      <args> x34 x74 </args>
      <args> x35 x45 </args>
      <args> x41 x61 </args>
      <args> x41 x45 </args>
      <args> x43 x45 </args>
      <args> x44 x45 </args>
      <args> x44 x74 </args>
      <args> x45 x46 </args>
      <args> x45 x48 </args>
      <args> x45 x49 </args>
      <args> x45 x55 </args>
      <args> x45 x75 </args>
      <args> x45 x85 </args>
      <args> x52 x92 </args>
      <args> x54 x74 </args>
      <args> x60 x61 </args>
      <args> x61 x63 </args>
      <args> x61 x66 </args>
      <args> x61 x67 </args>
      <args> x61 x68 </args>
      <args> x61 x69 </args>
      <args> x70 x74 </args>
      <args> x72 x92 </args>
      <args> x72 x74 </args>
      <args> x73 x74 </args>
      <args> x74 x94 </args>
      <args> x74 x75 </args>
      <args> x74 x76 </args>
      <args> x74 x77 </args>
      <args> x82 x92 </args>
      <args> x90 x92 </args>
      <args> x92 x93 </args>
      <args> x92 x94 </args>
      <args> x92 x96 </args>
      <args> x92 x99 </args>
    </group>
    <group>
      <extension>
        <list> %0 %1 </list>
        <conflicts> (3,3) </conflicts>
      </extension>
      <args> x1 x8 </args>
      <args> x1 x91 </args>
      <args> x3 x8 </args>
      <args> x4 x8 </args>
      <args> x5 x8 </args>
      <args> x8 x9 </args>
      <args> x8 x18 </args>
      <args> x8 x28 </args>
      <args> x8 x38 </args>
      <args> x8 x48 </args>
      <args> x8 x58 </args>
      <args> x8 x68 </args>
      <args> x9 x79 </args>
      <args> x11 x91 </args>
      <args> x12 x62 </args>
      <args> x17 x37 </args>
      <args> x21 x91 </args>
      <args> x22 x62 </args>
      <args> x27 x37 </args>
      <args> x31 x91 </args>
      <args> x31 x37 </args>
      <args> x32 x62 </args>
      <args> x32 x37 </args>
      <args> x34 x37 </args>
      <args> x35 x37 </args>
      <args> x36 x37 </args>
      <args> x37 x38 </args>
      <args> x37 x67 </args>
      <args> x37 x77 </args>
      <args> x37 x87 </args>
      <args> x40 x50 </args>
      <args> x40 x60 </args>
      <args> x40 x70 </args>
      <args> x40 x80 </args>
      <args> x40 x90 </args>
      <args> x40 x41 </args>
      <args> x40 x43 </args>
      <args> x40 x44 </args>
      <args> x40 x46 </args>
      <args> x40 x48 </args>
      <args> x40 x49 </args>
      <args> x41 x91 </args>
      <args> x49 x79 </args>
      <args> x52 x62 </args>
      <args> x59 x79 </args>
      <args> x60 x62 </args>
      <args> x62 x72 </args>
      <args> x62 x82 </args>
      <args> x62 x63 </args>
      <args> x62 x66 </args>
      <args> x62 x67 </args>
      <args> x62 x68 </args>
      <args> x62 x69 </args>
      <args> x69 x79 </args>
      <args> x70 x79 </args>
      <args> x72 x79 </args>
      <args> x73 x79 </args>
      <args> x75 x79 </args>
      <args> x76 x79 </args>
      <args> x77 x79 </args>
      <args> x79 x89 </args>
      <args> x79 x99 </args>
      <args> x90 x91 </args>
      <args> x91 x93 </args>
      <args> x91 x94 </args>
      <args> x91 x96 </args>
      <args> x91 x99 </args>
    </group>
    <group>
      <extension>
        <list> %0 %1 </list>
        <conflicts> (7,7) </conflicts>
      </extension>
      <args> x1 x51 </args>
      <args> x4 x64 </args>
      <args> x11 x51 </args>
      <args> x17 x47 </args>
      <args> x21 x51 </args>
      <args> x21 x26 </args>
      <args> x22 x26 </args>
      <args> x24 x26 </args>
      <args> x24 x64 </args>
      <args> x26 x27 </args>
      <args> x26 x28 </args>
      <args> x26 x36 </args>
      <args> x26 x46 </args>
      <args> x26 x66 </args>
      <args> x26 x76 </args>
      <args> x26 x86 </args>
      <args> x26 x96 </args>
      <args> x27 x47 </args>
      <args> x31 x51 </args>
      <args> x34 x64 </args>
      <args> x41 x51 </args>
      <args> x41 x47 </args>
      <args> x43 x47 </args>
      <args> x44 x47 </args>
      <args> x44 x64 </args>
      <args> x46 x47 </args>
      <args> x47 x48 </args>
      <args> x47 x49 </args>
      <args> x47 x67 </args>
      <args> x47 x77 </args>
      <args> x47 x87 </args>
      <args> x50 x51 </args>
      <args> x51 x52 </args>
      <args> x51 x54 </args>
      <args> x51 x55 </args>
      <args> x51 x58 </args>
      <args> x51 x59 </args>
      <args> x54 x64 </args>
      <args> x60 x64 </args>
      <args> x63 x64 </args>
      <args> x64 x94 </args>
      <args> x64 x66 </args>
      <args> x64 x67 </args>
      <args> x64 x68 </args>
      <args> x64 x69 </args>
    </group>
    <group>
      <extension>
        <list> %0 %1 </list>
        <conflicts> (1,1) </conflicts>
      </extension>
      <args> x1 x71 </args>
      <args> x3 x83 </args>
      <args> x5 x95 </args>
      <args> x11 x71 </args>
      <args> x13 x83 </args>
      <args> x15 x95 </args>
      <args> x21 x71 </args>
      <args> x31 x71 </args>
      <args> x35 x95 </args>
      <args> x36 x56 </args>
      <args> x41 x71 </args>
      <args> x43 x83 </args>
      <args> x46 x56 </args>
      <args> x50 x56 </args>
      <args> x52 x56 </args>
      <args> x54 x56 </args>
      <args> x55 x56 </args>
      <args> x55 x95 </args>
      <args> x56 x58 </args>
      <args> x56 x59 </args>
      <args> x56 x66 </args>
      <args> x56 x76 </args>
      <args> x56 x86 </args>
      <args> x56 x96 </args>
      <args> x63 x83 </args>
      <args> x70 x71 </args>
      <args> x71 x72 </args>
      <args> x71 x73 </args>
      <args> x71 x75 </args>
      <args> x71 x76 </args>
      <args> x71 x77 </args>
      <args> x73 x83 </args>
      <args> x75 x95 </args>
      <args> x80 x83 </args>
      <args> x82 x83 </args>
      <args> x83 x93 </args>
      <args> x83 x85 </args>
      <args> x83 x86 </args>
      <args> x83 x87 </args>
      <args> x83 x89 </args>
      <args> x85 x95 </args>
      <args> x90 x95 </args>
      <args> x93 x95 </args>
      <args> x94 x95 </args>
      <args> x95 x96 </args>
      <args> x95 x99 </args>
    </group>
    <group>
      <extension>
        <list> %0 %1 </list>
        <conflicts> (4,4) </conflicts>
      </extension>
      <args> x1 x81 </args>
      <args> x3 x53 </args>
      <args> x11 x81 </args>
      <args> x13 x53 </args>
      <args> x17 x97 </args>
      <args> x21 x81 </args>
      <args> x27 x97 </args>
      <args> x30 x50 </args>
      <args> x30 x60 </args>
      <args> x30 x70 </args>
      <args> x30 x80 </args>
      <args> x30 x90 </args>
      <args> x30 x31 </args>
      <args> x30 x32 </args>
      <args> x30 x34 </args>
      <args> x30 x35 </args>
      <args> x30 x36 </args>
      <args> x30 x38 </args>
      <args> x31 x81 </args>
      <args> x41 x81 </args>
      <args> x43 x53 </args>
      <args> x50 x53 </args>
      <args> x52 x53 </args>
      <args> x53 x63 </args>
      <args> x53 x73 </args>
      <args> x53 x93 </args>
      <args> x53 x54 </args>
      <args> x53 x55 </args>
      <args> x53 x58 </args>
      <args> x53 x59 </args>
      <args> x67 x97 </args>
      <args> x77 x97 </args>
      <args> x80 x81 </args>
      <args> x81 x82 </args>
      <args> x81 x85 </args>
      <args> x81 x86 </args>
      <args> x81 x87 </args>
      <args> x81 x89 </args>
      <args> x87 x97 </args>
      <args> x90 x97 </args>
      <args> x93 x97 </args>
      <args> x94 x97 </args>
      <args> x96 x97 </args>
      <args> x97 x99 </args>
    </group>
    <group>
      <extension>
        <list> %0 %1 </list>
        <conflicts> (0,0) </conflicts>
      </extension>
      <args> x3 x23 </args>
      <args> x9 x19 </args>
      <args> x11 x19 </args>
      <args> x12 x19 </args>
      <args> x13 x19 </args>
      <args> x13 x23 </args>
      <args> x15 x19 </args>
      <args> x17 x19 </args>
      <args> x17 x57 </args>
      <args> x18 x19 </args>
      <args> x19 x49 </args>
      <args> x19 x59 </args>
      <args> x19 x69 </args>
      <args> x19 x89 </args>
      <args> x19 x99 </args>
      <args> x21 x23 </args>
      <args> x22 x23 </args>
      <args> x23 x24 </args>
      <args> x23 x27 </args>
      <args> x23 x28 </args>
      <args> x23 x43 </args>
      <args> x23 x63 </args>
      <args> x23 x73 </args>
      <args> x23 x93 </args>
      <args> x27 x57 </args>
      <args> x50 x57 </args>
      <args> x52 x57 </args>
      <args> x54 x57 </args>
      <args> x55 x57 </args>
      <args> x57 x58 </args>
      <args> x57 x59 </args>
      <args> x57 x67 </args>
      <args> x57 x77 </args>
      <args> x57 x87 </args>
    </group>
    <group>
      <extension>
        <list> %0 %1 </list>
        <conflicts> (5,5) </conflicts>
      </extension>
      <args> x5 x25 </args>
      <args> x10 x50 </args>
      <args> x10 x60 </args>
      <args> x10 x70 </args>
      <args> x10 x80 </args>
      <args> x10 x90 </args>
      <args> x10 x11 </args>
      <args> x10 x12 </args>
      <args> x10 x13 </args>
      <args> x10 x15 </args>
      <args> x10 x17 </args>
      <args> x10 x18 </args>
      <args> x15 x25 </args>
      <args> x18 x88 </args>
      <args> x21 x25 </args>
      <args> x22 x25 </args>
      <args> x24 x25 </args>
      <args> x25 x27 </args>
      <args> x25 x28 </args>
      <args> x25 x35 </args>
      <args> x25 x55 </args>
      <args> x25 x75 </args>
      <args> x25 x85 </args>
      <args> x28 x88 </args>
      <args> x38 x88 </args>
      <args> x48 x88 </args>
      <args> x58 x88 </args>
      <args> x68 x88 </args>
      <args> x80 x88 </args>
      <args> x82 x88 </args>
      <args> x85 x88 </args>
      <args> x86 x88 </args>
      <args> x87 x88 </args>
      <args> x88 x89 </args>
    </group>
  </constraints>
</instance>
